benchmarks_vrp/CMT4/tsp_classic/CMT4_1.vrp
NAME: CMT4_1
TYPE: CVRP
COMMENT: 1028.42 - Cluster Nr.1
DIMENSION: 18
CAPACITY: 200
EDGE_WEIGHT_TYPE: EUC_2D
NODE_COORD_TYPE: TWOD_COORDS
NODE_COORD_SECTION: 
2 27 23
12 30 5
5 32 22
13 36 16
14 21 10
8 30 25
15 19 21
1 22 22
3 35 17
7 28 18
11 24 12
16 20 20
9 23 3
10 32 12
6 30 15
18 35 35
17 25 21
4 25 24
DEPOT_SECTION: 
18
-1
DEMAND_SECTION: 
3 7
15 10
9 7
18 0
4 20
5 9
8 23
6 16
13 10
17 12
7 26
2 3
11 5
1 2
16 8
12 8
10 7
14 13
EOF
