benchmarks_vrp/CMT4/tsp_classic/CMT4_1.tour
NAME: CMT4_1 solution
TYPE: TOUR
TOUR_SECTION:
18 5 13 3 6 10 12 9 14 11 7 17 1 15 16 4 2 8 -1
-1
EOF